3 3 2
30 2 100 1 60 2 75 0 102 1 14 2 192 1 55 0 50 2 156 0 99 2 32 1 63 0 36 2 179 1 48 0 126 2 78 1 6 2 190 1 13 0 177 2 50 1 110 0 17 2 7 1 73 0 21 1 155 2 54 1 28 
30 0 112 1 108 0 60 2 168 0 132 2 22 1 111 0 72 2 27 0 103 2 127 0 7 2 5 0 165 2 119 1 103 0 188 1 146 2 127 1 136 0 40 2 165 0 141 1 12 0 30 1 59 0 107 2 112 1 185 2 146 
30 0 2 1 80 2 85 1 82 2 111 1 106 0 17 1 36 2 38 0 172 1 7 0 15 1 5 2 143 0 95 2 135 0 109 2 131 0 185 1 36 2 111 1 64 0 33 2 103 0 185 1 77 0 58 1 77 0 125 2 25 

-------------
